(set-logic QF_LIA)
(declare-const x0 Int)
(assert (>= x0 0))
(assert (<= x0 64))
(declare-const x1 Int)
(assert (>= x1 0))
(assert (<= x1 64))
(declare-const x2 Int)
(assert (>= x2 0))
(assert (<= x2 64))
(assert (= x0 1))
(assert (= x1 2))
(assert (= x2 3))
(assert (= (+ x0 x1) x2))
(check-sat)
(get-value (x0 x1 x2))